benchmarks/bfuzz0/70503462242142394035648206920319620.smt2
(set-logic QF_FP)
(declare-const x0 (_ FloatingPoint 11 53))
(declare-const x1 (_ FloatingPoint 11 53))
(declare-const x2 (_ FloatingPoint 11 53))
(declare-const x3 (_ FloatingPoint 11 53))
(declare-const x4 (_ FloatingPoint 11 53))
(declare-const x5 (_ FloatingPoint 11 53))
(declare-const x6 (_ FloatingPoint 11 53))
(declare-const x7 (_ FloatingPoint 11 53))
(declare-const x8 (_ FloatingPoint 11 53))
(assert (fp.gt (fp.sub RNE x5 x1) (fp.add RNE x1 x7)))
(assert (fp.leq (fp.add RNE x2 x2) (fp.neg x4)))
(assert (fp.leq (fp.neg x8) (fp.div RNE x2 x4)))
(assert (fp.leq (fp.div RNE x5 x0) (fp.add RNE x2 x2)))
(assert (fp.eq (fp.mul RNE x7 x6) (fp.div RNE x3 x1)))
(assert (fp.gt (fp.neg x6) (fp.add RNE x3 x4)))
(assert (fp.leq (fp.neg x3) (fp.mul RNE x0 x6)))
(assert (fp.geq (fp.mul RNE x6 x0) (fp.div RNE x8 x4)))
(check-sat)
