db/data/70503462242142394035648206920319620.z3.out
-------------------
2500.093379323
